c File: data_files/evolved_graphs/g0489.col
c
c Auto generated graph
c
p edge 100 1956
e 1 4
e 1 22
e 1 23
e 1 26
e 1 30
e 1 33
e 1 34
e 1 37
e 1 38
e 1 39
e 1 41
e 1 45
e 1 52
e 1 54
e 1 55
e 1 56
e 1 58
e 1 59
e 1 60
e 1 66
e 1 68
e 1 69
e 1 70
e 1 71
e 1 72
e 1 74
e 1 75
e 1 76
e 1 77
e 1 78
e 1 80
e 1 81
e 1 82
e 1 83
e 1 84
e 1 85
e 1 86
e 1 88
e 1 90
e 1 91
e 1 94
e 1 95
e 1 97
e 1 98
e 2 4
e 2 18
e 2 22
e 2 24
e 2 29
e 2 39
e 2 40
e 2 46
e 2 47
e 2 57
e 2 58
e 2 59
e 2 60
e 2 61
e 2 63
e 2 68
e 2 69
e 2 70
e 2 73
e 2 74
e 2 75
e 2 79
e 2 81
e 2 82
e 2 83
e 2 87
e 2 91
e 2 93
e 2 94
e 2 95
e 2 99
e 2 100
e 3 4
e 3 20
e 3 26
e 3 30
e 3 32
e 3 41
e 3 44
e 3 46
e 3 47
e 3 59
e 3 62
e 3 65
e 3 67
e 3 68
e 3 70
e 3 74
e 3 77
e 3 78
e 3 79
e 3 81
e 3 82
e 3 84
e 3 85
e 3 87
e 3 89
e 3 91
e 3 92
e 3 93
e 3 94
e 3 98
e 3 100
e 4 7
e 4 20
e 4 34
e 4 44
e 4 45
e 4 47
e 4 50
e 4 52
e 4 63
e 4 66
e 4 67
e 4 68
e 4 70
e 4 72
e 4 74
e 4 76
e 4 77
e 4 78
e 4 79
e 4 80
e 4 82
e 4 83
e 4 84
e 4 85
e 4 88
e 4 90
e 4 91
e 4 92
e 4 93
e 4 94
e 4 96
e 4 98
e 4 100
e 5 19
e 5 23
e 5 28
e 5 31
e 5 38
e 5 40
e 5 41
e 5 44
e 5 46
e 5 47
e 5 52
e 5 53
e 5 58
e 5 61
e 5 62
e 5 64
e 5 66
e 5 67
e 5 68
e 5 70
e 5 71
e 5 72
e 5 75
e 5 77
e 5 79
e 5 80
e 5 82
e 5 85
e 5 86
e 5 87
e 5 88
e 5 89
e 5 91
e 5 94
e 5 95
e 5 96
e 5 97
e 5 98
e 5 100
e 6 18
e 6 19
e 6 24
e 6 28
e 6 38
e 6 43
e 6 44
e 6 46
e 6 48
e 6 49
e 6 50
e 6 54
e 6 55
e 6 66
e 6 67
e 6 69
e 6 70
e 6 72
e 6 73
e 6 75
e 6 76
e 6 77
e 6 78
e 6 79
e 6 80
e 6 81
e 6 82
e 6 85
e 6 86
e 6 88
e 6 89
e 6 90
e 6 91
e 6 92
e 6 93
e 6 94
e 6 96
e 6 97
e 6 100
e 7 22
e 7 30
e 7 35
e 7 36
e 7 37
e 7 39
e 7 48
e 7 52
e 7 55
e 7 61
e 7 68
e 7 69
e 7 71
e 7 73
e 7 74
e 7 75
e 7 76
e 7 77
e 7 78
e 7 80
e 7 82
e 7 84
e 7 85
e 7 90
e 7 92
e 7 93
e 7 94
e 7 95
e 7 97
e 7 99
e 8 24
e 8 28
e 8 32
e 8 33
e 8 46
e 8 52
e 8 55
e 8 56
e 8 57
e 8 66
e 8 67
e 8 68
e 8 71
e 8 73
e 8 74
e 8 76
e 8 77
e 8 78
e 8 79
e 8 81
e 8 82
e 8 84
e 8 85
e 8 87
e 8 89
e 8 90
e 8 92
e 8 93
e 8 94
e 8 96
e 8 98
e 9 20
e 9 22
e 9 31
e 9 33
e 9 44
e 9 45
e 9 47
e 9 54
e 9 59
e 9 66
e 9 69
e 9 71
e 9 72
e 9 73
e 9 74
e 9 77
e 9 79
e 9 80
e 9 82
e 9 83
e 9 86
e 9 87
e 9 88
e 9 90
e 9 91
e 9 92
e 9 93
e 9 94
e 9 95
e 9 96
e 9 97
e 9 100
e 10 21
e 10 26
e 10 27
e 10 30
e 10 40
e 10 45
e 10 46
e 10 47
e 10 48
e 10 50
e 10 51
e 10 60
e 10 67
e 10 68
e 10 69
e 10 71
e 10 72
e 10 73
e 10 74
e 10 75
e 10 76
e 10 77
e 10 78
e 10 83
e 10 84
e 10 85
e 10 86
e 10 88
e 10 89
e 10 90
e 10 91
e 10 93
e 10 94
e 10 95
e 10 99
e 11 18
e 11 25
e 11 26
e 11 27
e 11 28
e 11 29
e 11 30
e 11 31
e 11 32
e 11 33
e 11 34
e 11 35
e 11 36
e 11 37
e 11 38
e 11 39
e 11 40
e 11 41
e 11 42
e 11 43
e 11 44
e 11 45
e 11 46
e 11 47
e 11 48
e 11 49
e 11 50
e 11 51
e 11 52
e 11 53
e 11 54
e 11 55
e 11 56
e 11 57
e 11 58
e 11 59
e 11 60
e 11 61
e 11 62
e 11 63
e 11 64
e 11 65
e 11 66
e 11 67
e 11 68
e 11 69
e 11 70
e 11 71
e 11 72
e 11 73
e 11 74
e 11 75
e 11 76
e 11 77
e 11 78
e 11 79
e 11 80
e 11 81
e 11 82
e 11 83
e 11 84
e 11 85
e 11 86
e 11 87
e 11 88
e 11 89
e 11 90
e 11 91
e 11 92
e 11 93
e 11 94
e 11 95
e 11 96
e 11 97
e 11 98
e 11 99
e 11 100
e 12 25
e 12 26
e 12 27
e 12 28
e 12 29
e 12 30
e 12 31
e 12 32
e 12 33
e 12 34
e 12 35
e 12 36
e 12 37
e 12 38
e 12 39
e 12 40
e 12 41
e 12 42
e 12 43
e 12 44
e 12 45
e 12 46
e 12 47
e 12 48
e 12 50
e 12 51
e 12 52
e 12 53
e 12 54
e 12 55
e 12 56
e 12 57
e 12 58
e 12 59
e 12 60
e 12 61
e 12 62
e 12 63
e 12 64
e 12 65
e 12 66
e 12 67
e 12 68
e 12 69
e 12 70
e 12 71
e 12 72
e 12 73
e 12 74
e 12 75
e 12 77
e 12 78
e 12 79
e 12 80
e 12 81
e 12 82
e 12 83
e 12 84
e 12 85
e 12 86
e 12 87
e 12 88
e 12 89
e 12 90
e 12 91
e 12 92
e 12 93
e 12 94
e 12 95
e 12 96
e 12 97
e 12 98
e 12 99
e 12 100
e 13 25
e 13 26
e 13 27
e 13 28
e 13 29
e 13 30
e 13 31
e 13 32
e 13 33
e 13 34
e 13 35
e 13 36
e 13 37
e 13 38
e 13 39
e 13 41
e 13 42
e 13 43
e 13 44
e 13 45
e 13 46
e 13 47
e 13 48
e 13 49
e 13 50
e 13 52
e 13 53
e 13 54
e 13 55
e 13 56
e 13 57
e 13 58
e 13 59
e 13 60
e 13 61
e 13 62
e 13 63
e 13 64
e 13 65
e 13 66
e 13 67
e 13 68
e 13 69
e 13 70
e 13 71
e 13 72
e 13 73
e 13 74
e 13 75
e 13 76
e 13 77
e 13 78
e 13 79
e 13 80
e 13 81
e 13 82
e 13 83
e 13 84
e 13 85
e 13 87
e 13 88
e 13 89
e 13 90
e 13 91
e 13 92
e 13 93
e 13 94
e 13 95
e 13 96
e 13 97
e 13 98
e 13 99
e 13 100
e 14 25
e 14 26
e 14 27
e 14 28
e 14 29
e 14 30
e 14 31
e 14 32
e 14 33
e 14 34
e 14 35
e 14 36
e 14 37
e 14 38
e 14 39
e 14 40
e 14 41
e 14 42
e 14 43
e 14 44
e 14 45
e 14 46
e 14 47
e 14 48
e 14 49
e 14 50
e 14 51
e 14 52
e 14 53
e 14 54
e 14 55
e 14 56
e 14 57
e 14 58
e 14 59
e 14 60
e 14 61
e 14 62
e 14 63
e 14 64
e 14 65
e 14 66
e 14 67
e 14 68
e 14 69
e 14 70
e 14 71
e 14 72
e 14 73
e 14 74
e 14 75
e 14 76
e 14 77
e 14 78
e 14 79
e 14 80
e 14 81
e 14 82
e 14 83
e 14 84
e 14 85
e 14 86
e 14 87
e 14 88
e 14 89
e 14 90
e 14 91
e 14 92
e 14 93
e 14 94
e 14 95
e 14 96
e 14 97
e 14 98
e 14 99
e 14 100
e 15 25
e 15 26
e 15 27
e 15 28
e 15 29
e 15 30
e 15 31
e 15 32
e 15 33
e 15 34
e 15 35
e 15 36
e 15 37
e 15 38
e 15 39
e 15 40
e 15 41
e 15 42
e 15 43
e 15 44
e 15 45
e 15 46
e 15 47
e 15 48
e 15 49
e 15 50
e 15 51
e 15 52
e 15 53
e 15 54
e 15 56
e 15 57
e 15 58
e 15 59
e 15 60
e 15 61
e 15 62
e 15 63
e 15 64
e 15 65
e 15 66
e 15 67
e 15 68
e 15 69
e 15 70
e 15 71
e 15 72
e 15 73
e 15 74
e 15 75
e 15 76
e 15 77
e 15 78
e 15 79
e 15 80
e 15 81
e 15 82
e 15 83
e 15 85
e 15 86
e 15 87
e 15 88
e 15 89
e 15 90
e 15 91
e 15 92
e 15 93
e 15 94
e 15 95
e 15 96
e 15 97
e 15 98
e 15 99
e 15 100
e 16 25
e 16 27
e 16 28
e 16 29
e 16 30
e 16 31
e 16 32
e 16 33
e 16 34
e 16 35
e 16 36
e 16 37
e 16 38
e 16 58
e 16 61
e 16 67
e 16 69
e 16 77
e 16 79
e 16 82
e 16 83
e 16 90
e 16 97
e 16 98
e 17 25
e 17 27
e 17 28
e 17 29
e 17 30
e 17 31
e 17 32
e 17 33
e 17 34
e 17 35
e 17 36
e 17 37
e 17 38
e 17 40
e 17 42
e 17 43
e 17 58
e 17 62
e 17 63
e 17 68
e 17 70
e 17 72
e 17 75
e 17 77
e 17 80
e 17 81
e 17 87
e 17 89
e 17 92
e 17 95
e 17 96
e 18 25
e 18 26
e 18 27
e 18 28
e 18 29
e 18 30
e 18 31
e 18 32
e 18 33
e 18 34
e 18 35
e 18 36
e 18 37
e 18 38
e 18 39
e 18 40
e 18 41
e 18 42
e 18 43
e 18 44
e 18 45
e 18 46
e 18 47
e 18 48
e 18 49
e 18 50
e 18 51
e 18 52
e 18 53
e 18 59
e 18 80
e 18 81
e 18 82
e 18 83
e 18 98
e 18 100
e 19 25
e 19 26
e 19 27
e 19 28
e 19 29
e 19 30
e 19 31
e 19 32
e 19 33
e 19 34
e 19 35
e 19 36
e 19 37
e 19 38
e 19 39
e 19 40
e 19 41
e 19 42
e 19 43
e 19 44
e 19 45
e 19 46
e 19 47
e 19 48
e 19 49
e 19 50
e 19 51
e 19 52
e 19 53
e 19 56
e 19 60
e 19 68
e 19 74
e 19 75
e 19 78
e 19 83
e 19 90
e 20 25
e 20 26
e 20 27
e 20 28
e 20 29
e 20 30
e 20 31
e 20 32
e 20 33
e 20 34
e 20 35
e 20 36
e 20 37
e 20 38
e 20 39
e 20 40
e 20 41
e 20 42
e 20 43
e 20 44
e 20 45
e 20 46
e 20 47
e 20 48
e 20 49
e 20 50
e 20 51
e 20 52
e 20 53
e 20 57
e 20 64
e 20 87
e 20 88
e 20 94
e 20 99
e 21 25
e 21 26
e 21 27
e 21 28
e 21 29
e 21 30
e 21 31
e 21 32
e 21 33
e 21 34
e 21 35
e 21 36
e 21 37
e 21 38
e 21 39
e 21 40
e 21 41
e 21 42
e 21 43
e 21 44
e 21 45
e 21 46
e 21 47
e 21 48
e 21 49
e 21 50
e 21 51
e 21 52
e 21 53
e 21 61
e 21 67
e 21 72
e 21 74
e 21 75
e 21 76
e 22 25
e 22 26
e 22 27
e 22 28
e 22 29
e 22 30
e 22 31
e 22 32
e 22 33
e 22 34
e 22 35
e 22 36
e 22 37
e 22 38
e 22 39
e 22 40
e 22 41
e 22 42
e 22 43
e 22 44
e 22 45
e 22 46
e 22 47
e 22 48
e 22 49
e 22 50
e 22 51
e 22 52
e 22 53
e 22 66
e 22 75
e 22 89
e 22 96
e 23 25
e 23 26
e 23 27
e 23 28
e 23 29
e 23 30
e 23 31
e 23 32
e 23 33
e 23 34
e 23 35
e 23 36
e 23 37
e 23 38
e 23 39
e 23 40
e 23 41
e 23 42
e 23 43
e 23 44
e 23 45
e 23 47
e 23 48
e 23 49
e 23 50
e 23 51
e 23 52
e 23 53
e 23 61
e 23 63
e 23 64
e 23 67
e 23 70
e 23 75
e 23 79
e 24 25
e 24 26
e 24 27
e 24 28
e 24 29
e 24 30
e 24 31
e 24 32
e 24 33
e 24 34
e 24 35
e 24 36
e 24 37
e 24 38
e 24 39
e 24 40
e 24 41
e 24 42
e 24 43
e 24 44
e 24 45
e 24 46
e 24 47
e 24 48
e 24 49
e 24 50
e 24 51
e 24 52
e 24 53
e 24 57
e 24 61
e 24 67
e 24 72
e 24 73
e 24 83
e 25 56
e 25 77
e 25 78
e 25 79
e 25 89
e 25 95
e 25 98
e 26 56
e 26 60
e 26 61
e 26 64
e 26 65
e 26 67
e 26 72
e 26 73
e 26 75
e 26 81
e 26 92
e 26 100
e 27 56
e 27 68
e 27 76
e 27 85
e 27 86
e 27 87
e 27 91
e 27 92
e 27 95
e 27 97
e 27 99
e 28 97
e 28 98
e 28 99
e 29 54
e 29 61
e 29 62
e 29 63
e 29 73
e 29 74
e 29 78
e 29 90
e 29 94
e 29 96
e 29 99
e 30 58
e 30 63
e 30 66
e 30 87
e 30 91
e 30 92
e 30 94
e 31 41
e 31 44
e 31 45
e 31 47
e 31 48
e 31 52
e 31 55
e 31 56
e 31 58
e 31 62
e 31 65
e 31 68
e 31 69
e 31 72
e 31 73
e 31 75
e 31 76
e 31 77
e 31 78
e 31 80
e 31 81
e 31 85
e 31 86
e 31 88
e 31 92
e 31 94
e 31 96
e 31 99
e 31 100
e 32 39
e 32 41
e 32 52
e 32 53
e 32 55
e 32 56
e 32 57
e 32 59
e 32 60
e 32 64
e 32 66
e 32 67
e 32 68
e 32 69
e 32 70
e 32 71
e 32 83
e 32 85
e 32 87
e 32 88
e 32 89
e 32 90
e 32 92
e 32 94
e 32 96
e 32 97
e 32 99
e 33 39
e 33 41
e 33 48
e 33 61
e 33 62
e 33 64
e 33 67
e 33 72
e 33 75
e 33 76
e 33 79
e 33 80
e 33 81
e 33 82
e 33 85
e 33 86
e 33 87
e 33 89
e 33 93
e 33 95
e 33 96
e 33 98
e 33 99
e 33 100
e 34 39
e 34 46
e 34 47
e 34 52
e 34 53
e 34 57
e 34 58
e 34 60
e 34 63
e 34 64
e 34 65
e 34 69
e 34 72
e 34 73
e 34 74
e 34 75
e 34 81
e 34 84
e 34 86
e 34 88
e 34 90
e 34 93
e 34 95
e 34 96
e 34 99
e 35 41
e 35 49
e 35 52
e 35 53
e 35 54
e 35 55
e 35 57
e 35 61
e 35 62
e 35 65
e 35 67
e 35 70
e 35 72
e 35 73
e 35 75
e 35 82
e 35 83
e 35 87
e 35 90
e 35 92
e 35 93
e 35 100
e 36 51
e 36 54
e 36 56
e 36 57
e 36 59
e 36 60
e 36 62
e 36 66
e 36 71
e 36 75
e 36 77
e 36 78
e 36 79
e 36 80
e 36 83
e 36 84
e 36 86
e 36 89
e 36 93
e 36 97
e 36 98
e 36 99
e 36 100
e 37 39
e 37 45
e 37 49
e 37 54
e 37 55
e 37 56
e 37 59
e 37 61
e 37 65
e 37 69
e 37 70
e 37 72
e 37 75
e 37 77
e 37 78
e 37 81
e 37 82
e 37 84
e 37 85
e 37 86
e 37 87
e 37 88
e 37 89
e 37 90
e 37 91
e 37 92
e 37 96
e 37 97
e 37 98
e 38 40
e 38 46
e 38 48
e 38 49
e 38 58
e 38 60
e 38 68
e 38 73
e 38 74
e 38 76
e 38 77
e 38 80
e 38 81
e 38 82
e 38 83
e 38 87
e 38 88
e 38 90
e 38 92
e 38 94
e 38 100
e 39 94
e 39 97
e 39 100
e 40 94
e 40 96
e 40 97
e 40 99
e 41 93
e 41 94
e 41 95
e 41 98
e 41 99
e 41 100
e 42 93
e 42 94
e 42 96
e 42 97
e 42 99
e 42 100
e 43 94
e 43 95
e 43 97
e 43 98
e 43 100
e 44 96
e 44 97
e 44 98
e 45 96
e 45 100
e 46 93
e 46 97
e 46 99
e 47 93
e 47 97
e 48 94
e 49 79
e 49 80
e 49 82
e 49 83
e 49 84
e 49 85
e 49 86
e 49 87
e 49 88
e 49 89
e 49 90
e 49 91
e 49 92
e 49 93
e 49 94
e 49 95
e 49 96
e 49 97
e 49 98
e 49 99
e 49 100
e 50 79
e 50 81
e 50 82
e 50 83
e 50 84
e 50 85
e 50 86
e 50 87
e 50 88
e 50 89
e 50 90
e 50 91
e 50 92
e 50 93
e 50 95
e 50 96
e 50 97
e 50 98
e 50 99
e 50 100
e 51 79
e 51 80
e 51 81
e 51 82
e 51 83
e 51 84
e 51 85
e 51 87
e 51 88
e 51 89
e 51 90
e 51 91
e 51 92
e 51 93
e 51 94
e 51 95
e 51 96
e 51 97
e 51 99
e 51 100
e 52 79
e 52 80
e 52 81
e 52 82
e 52 83
e 52 84
e 52 85
e 52 86
e 52 87
e 52 88
e 52 89
e 52 90
e 52 91
e 52 92
e 52 93
e 52 94
e 52 95
e 52 96
e 52 97
e 52 98
e 52 99
e 52 100
e 53 79
e 53 80
e 53 81
e 53 82
e 53 83
e 53 84
e 53 85
e 53 86
e 53 87
e 53 88
e 53 89
e 53 90
e 53 91
e 53 92
e 53 93
e 53 94
e 53 95
e 53 96
e 53 97
e 53 98
e 53 99
e 53 100
e 54 79
e 54 80
e 54 81
e 54 82
e 54 83
e 54 84
e 54 85
e 54 86
e 54 87
e 54 88
e 54 89
e 54 90
e 54 91
e 54 92
e 54 93
e 54 94
e 54 95
e 54 96
e 54 97
e 54 98
e 54 99
e 54 100
e 55 79
e 55 81
e 55 82
e 55 83
e 55 84
e 55 85
e 55 86
e 55 87
e 55 88
e 55 89
e 55 90
e 55 91
e 55 92
e 55 93
e 55 94
e 55 95
e 55 96
e 55 97
e 55 98
e 55 99
e 55 100
e 56 79
e 56 80
e 56 81
e 56 82
e 56 83
e 56 85
e 56 86
e 56 87
e 56 88
e 56 89
e 56 90
e 56 91
e 56 92
e 56 93
e 56 94
e 56 96
e 56 97
e 56 98
e 56 99
e 56 100
e 57 79
e 57 80
e 57 81
e 57 82
e 57 83
e 57 84
e 57 85
e 57 86
e 57 87
e 57 88
e 57 89
e 57 90
e 57 91
e 57 92
e 57 93
e 57 96
e 57 97
e 57 98
e 57 100
e 58 79
e 58 80
e 58 81
e 58 82
e 58 83
e 58 84
e 58 85
e 58 86
e 58 87
e 58 88
e 58 89
e 58 90
e 58 91
e 58 92
e 58 93
e 58 94
e 58 95
e 58 96
e 58 97
e 58 98
e 58 99
e 58 100
e 59 79
e 59 80
e 59 81
e 59 82
e 59 83
e 59 84
e 59 85
e 59 86
e 59 87
e 59 88
e 59 89
e 59 90
e 59 91
e 59 92
e 59 93
e 59 94
e 59 95
e 59 96
e 59 97
e 59 98
e 59 100
e 60 79
e 60 80
e 60 81
e 60 82
e 60 83
e 60 84
e 60 85
e 60 86
e 60 87
e 60 88
e 60 89
e 60 90
e 60 91
e 60 93
e 60 94
e 60 95
e 60 96
e 60 97
e 60 98
e 60 99
e 60 100
e 61 79
e 61 80
e 61 81
e 61 82
e 61 83
e 61 84
e 61 85
e 61 86
e 61 87
e 61 88
e 61 89
e 61 90
e 61 91
e 61 92
e 61 93
e 61 94
e 61 95
e 61 97
e 61 98
e 61 100
e 62 79
e 62 81
e 62 82
e 62 83
e 62 84
e 62 85
e 62 86
e 62 87
e 62 88
e 62 89
e 62 90
e 62 91
e 62 94
e 62 95
e 62 96
e 62 97
e 62 98
e 62 99
e 62 100
e 63 79
e 63 80
e 63 81
e 63 82
e 63 83
e 63 84
e 63 85
e 63 86
e 63 87
e 63 88
e 63 89
e 63 90
e 63 91
e 63 92
e 63 93
e 63 94
e 63 95
e 63 96
e 63 97
e 63 98
e 63 99
e 63 100
e 64 79
e 64 80
e 64 81
e 64 82
e 64 83
e 64 84
e 64 85
e 64 86
e 64 87
e 64 88
e 64 89
e 64 91
e 64 92
e 64 93
e 64 95
e 64 96
e 64 97
e 64 98
e 64 99
e 64 100
e 65 79
e 65 80
e 65 81
e 65 82
e 65 83
e 65 84
e 65 85
e 65 86
e 65 87
e 65 88
e 65 89
e 65 90
e 65 92
e 65 93
e 65 94
e 65 95
e 65 96
e 65 97
e 65 98
e 65 99
e 65 100
e 66 79
e 66 80
e 66 81
e 66 82
e 66 83
e 66 84
e 66 85
e 66 86
e 66 87
e 66 89
e 66 90
e 66 92
e 66 93
e 66 94
e 66 95
e 66 96
e 66 97
e 66 98
e 66 99
e 66 100
e 67 79
e 67 80
e 67 81
e 67 83
e 67 84
e 67 85
e 67 86
e 67 87
e 67 88
e 67 89
e 67 90
e 67 91
e 67 92
e 67 93
e 67 94
e 67 95
e 67 96
e 67 97
e 67 98
e 67 99
e 67 100
e 68 79
e 68 80
e 68 81
e 68 82
e 68 83
e 68 84
e 68 85
e 68 87
e 68 88
e 68 89
e 68 90
e 68 92
e 68 93
e 68 95
e 68 96
e 68 97
e 68 98
e 68 99
e 68 100
e 69 79
e 69 80
e 69 82
e 69 83
e 69 84
e 69 85
e 69 86
e 69 87
e 69 88
e 69 90
e 69 91
e 69 92
e 69 93
e 69 95
e 69 96
e 69 97
e 69 98
e 69 99
e 69 100
e 70 79
e 70 80
e 70 81
e 70 82
e 70 83
e 70 84
e 70 85
e 70 86
e 70 87
e 70 88
e 70 89
e 70 90
e 70 91
e 70 92
e 70 93
e 70 94
e 70 95
e 70 96
e 70 97
e 70 98
e 70 99
e 70 100
e 71 79
e 71 80
e 71 81
e 71 82
e 71 83
e 71 84
e 71 85
e 71 86
e 71 87
e 71 88
e 71 89
e 71 90
e 71 91
e 71 92
e 71 93
e 71 94
e 71 95
e 71 96
e 71 97
e 71 98
e 71 99
e 71 100
e 72 79
e 72 80
e 72 81
e 72 82
e 72 83
e 72 84
e 72 85
e 72 87
e 72 88
e 72 89
e 72 90
e 72 91
e 72 92
e 72 93
e 72 94
e 72 95
e 72 96
e 72 97
e 72 98
e 72 99
e 72 100
e 73 76
e 73 79
e 73 80
e 73 81
e 73 82
e 73 83
e 73 84
e 73 85
e 73 86
e 73 87
e 73 88
e 73 89
e 73 90
e 73 91
e 73 92
e 73 93
e 73 94
e 73 95
e 73 96
e 73 97
e 73 98
e 73 99
e 73 100
e 74 79
e 74 80
e 74 81
e 74 82
e 74 83
e 74 84
e 74 86
e 74 87
e 74 88
e 74 89
e 74 90
e 74 91
e 74 92
e 74 93
e 74 94
e 74 95
e 74 96
e 74 97
e 74 98
e 74 99
e 75 79
e 75 80
e 75 81
e 75 82
e 75 84
e 75 85
e 75 87
e 75 88
e 75 89
e 75 90
e 75 91
e 75 92
e 75 94
e 75 95
e 75 97
e 75 98
e 75 99
e 76 79
e 76 80
e 76 81
e 76 82
e 76 83
e 76 84
e 76 85
e 76 86
e 76 87
e 76 88
e 76 89
e 76 90
e 76 91
e 76 92
e 76 93
e 76 94
e 76 95
e 76 96
e 76 97
e 76 98
e 76 99
e 76 100
e 77 78
e 77 79
e 77 80
e 77 81
e 77 82
e 77 83
e 77 84
e 77 85
e 77 86
e 77 87
e 77 88
e 77 89
e 77 90
e 77 91
e 77 92
e 77 93
e 77 94
e 77 95
e 77 96
e 77 97
e 77 98
e 77 99
e 77 100
e 78 79
e 78 80
e 78 81
e 78 82
e 78 83
e 78 85
e 78 86
e 78 87
e 78 88
e 78 89
e 78 90
e 78 91
e 78 93
e 78 94
e 78 97
e 78 98
e 78 99
e 78 100
e 79 95
e 79 96
e 79 97
e 80 95
e 80 96
e 80 97
e 81 89
e 81 95
e 81 96
e 81 97
e 82 95
e 82 96
e 82 97
e 83 95
e 83 96
e 83 97
e 84 95
e 84 96
e 84 97
e 85 95
e 85 96
e 85 97
e 87 95
e 87 96
e 87 97
e 88 96
e 88 97
e 90 96
e 91 96
